NAME          DCAP_2_4_3_500_SS412
ROWS
 N  OBJ
 L  CON1
 L  CON2
 L  CON3
 L  CON4
 L  CON5
 L  CON6
 L  CON7
 L  CON8
 L  CON9
 L  CON10
 L  CON11
 L  CON12
 E  CON13
 E  CON14
 E  CON15
 E  CON16
 E  CON17
 E  CON18
 E  CON19
 E  CON20
 E  CON21
 E  CON22
 E  CON23
 E  CON24
COLUMNS
    x[1,1]    OBJ       6.180167      CON1      1.000000    
    x[1,1]    CON7      -1.000000     CON8      -1.000000   
    x[1,1]    CON9      -1.000000   
    x[1,2]    OBJ       6.563535      CON2      1.000000    
    x[1,2]    CON8      -1.000000     CON9      -1.000000   
    x[1,3]    OBJ       7.443064      CON3      1.000000    
    x[1,3]    CON9      -1.000000   
    x[2,1]    OBJ       6.732585      CON4      1.000000    
    x[2,1]    CON10     -1.000000     CON11     -1.000000   
    x[2,1]    CON12     -1.000000   
    x[2,2]    OBJ       5.039546      CON5      1.000000    
    x[2,2]    CON11     -1.000000     CON12     -1.000000   
    x[2,3]    OBJ       6.054841      CON6      1.000000    
    x[2,3]    CON12     -1.000000   
    MARKER    'MARKER'                'INTORG'
    u[1,1]    OBJ       48.076654     CON1      -1.000000   
    u[1,2]    OBJ       20.066487     CON2      -1.000000   
    u[1,3]    OBJ       32.230043     CON3      -1.000000   
    u[2,1]    OBJ       49.996186     CON4      -1.000000   
    u[2,2]    OBJ       49.466655     CON5      -1.000000   
    u[2,3]    OBJ       27.484319     CON6      -1.000000   
    y[1,1,1]  OBJ       5.844297      CON7      1.156995    
    y[1,1,1]  CON13     1.000000    
    y[1,1,2]  OBJ       8.827354      CON8      1.141581    
    y[1,1,2]  CON14     1.000000    
    y[1,1,3]  OBJ       6.049071      CON9      1.342234    
    y[1,1,3]  CON15     1.000000    
    y[1,2,1]  OBJ       6.545950      CON7      1.001669    
    y[1,2,1]  CON16     1.000000    
    y[1,2,2]  OBJ       9.510623      CON8      0.764439    
    y[1,2,2]  CON17     1.000000    
    y[1,2,3]  OBJ       6.154985      CON9      1.008405    
    y[1,2,3]  CON18     1.000000    
    y[1,3,1]  OBJ       6.666467      CON7      0.882908    
    y[1,3,1]  CON19     1.000000    
    y[1,3,2]  OBJ       6.793005      CON8      0.651556    
    y[1,3,2]  CON20     1.000000    
    y[1,3,3]  OBJ       5.691640      CON9      0.789225    
    y[1,3,3]  CON21     1.000000    
    y[1,4,1]  OBJ       7.652617      CON7      0.821034    
    y[1,4,1]  CON22     1.000000    
    y[1,4,2]  OBJ       6.446465      CON8      0.621771    
    y[1,4,2]  CON23     1.000000    
    y[1,4,3]  OBJ       5.437540      CON9      1.136604    
    y[1,4,3]  CON24     1.000000    
    y[2,1,1]  OBJ       9.072776      CON10     1.156995    
    y[2,1,1]  CON13     1.000000    
    y[2,1,2]  OBJ       5.503526      CON11     1.141581    
    y[2,1,2]  CON14     1.000000    
    y[2,1,3]  OBJ       9.014099      CON12     1.342234    
    y[2,1,3]  CON15     1.000000    
    y[2,2,1]  OBJ       6.804562      CON10     1.001669    
    y[2,2,1]  CON16     1.000000    
    y[2,2,2]  OBJ       5.615295      CON11     0.764439    
    y[2,2,2]  CON17     1.000000    
    y[2,2,3]  OBJ       9.274104      CON12     1.008405    
    y[2,2,3]  CON18     1.000000    
    y[2,3,1]  OBJ       9.180800      CON10     0.882908    
    y[2,3,1]  CON19     1.000000    
    y[2,3,2]  OBJ       7.375259      CON11     0.651556    
    y[2,3,2]  CON20     1.000000    
    y[2,3,3]  OBJ       9.474877      CON12     0.789225    
    y[2,3,3]  CON21     1.000000    
    y[2,4,1]  OBJ       9.258909      CON10     0.821034    
    y[2,4,1]  CON22     1.000000    
    y[2,4,2]  OBJ       7.131286      CON11     0.621771    
    y[2,4,2]  CON23     1.000000    
    y[2,4,3]  OBJ       9.375430      CON12     1.136604    
    y[2,4,3]  CON24     1.000000    
    z[1,1]    OBJ       988.344070    CON13     1.000000    
    z[1,2]    OBJ       999.441622    CON14     1.000000    
    z[1,3]    OBJ       645.590010    CON15     1.000000    
    z[2,1]    OBJ       524.232039    CON16     1.000000    
    z[2,2]    OBJ       641.766647    CON17     1.000000    
    z[2,3]    OBJ       763.307846    CON18     1.000000    
    z[3,1]    OBJ       716.143613    CON19     1.000000    
    z[3,2]    OBJ       820.210944    CON20     1.000000    
    z[3,3]    OBJ       739.695524    CON21     1.000000    
    z[4,1]    OBJ       975.794834    CON22     1.000000    
    z[4,2]    OBJ       880.298842    CON23     1.000000    
    z[4,3]    OBJ       502.854138    CON24     1.000000    
    MARKER    'MARKER'                 'INTEND'
RHS
    RHS       CON1      -0.000000     CON2      -0.000000   
    RHS       CON3      -0.000000     CON4      -0.000000   
    RHS       CON5      -0.000000     CON6      -0.000000   
    RHS       CON7      -0.000000     CON8      -0.000000   
    RHS       CON9      -0.000000     CON10     -0.000000   
    RHS       CON11     -0.000000     CON12     -0.000000   
    RHS       CON13     1.000000      CON14     1.000000    
    RHS       CON15     1.000000      CON16     1.000000    
    RHS       CON17     1.000000      CON18     1.000000    
    RHS       CON19     1.000000      CON20     1.000000    
    RHS       CON21     1.000000      CON22     1.000000    
    RHS       CON23     1.000000      CON24     1.000000    
BOUNDS
 BV BOUND     u[1,1]  
 BV BOUND     u[1,2]  
 BV BOUND     u[1,3]  
 BV BOUND     u[2,1]  
 BV BOUND     u[2,2]  
 BV BOUND     u[2,3]  
 BV BOUND     y[1,1,1]
 BV BOUND     y[1,1,2]
 BV BOUND     y[1,1,3]
 BV BOUND     y[1,2,1]
 BV BOUND     y[1,2,2]
 BV BOUND     y[1,2,3]
 BV BOUND     y[1,3,1]
 BV BOUND     y[1,3,2]
 BV BOUND     y[1,3,3]
 BV BOUND     y[1,4,1]
 BV BOUND     y[1,4,2]
 BV BOUND     y[1,4,3]
 BV BOUND     y[2,1,1]
 BV BOUND     y[2,1,2]
 BV BOUND     y[2,1,3]
 BV BOUND     y[2,2,1]
 BV BOUND     y[2,2,2]
 BV BOUND     y[2,2,3]
 BV BOUND     y[2,3,1]
 BV BOUND     y[2,3,2]
 BV BOUND     y[2,3,3]
 BV BOUND     y[2,4,1]
 BV BOUND     y[2,4,2]
 BV BOUND     y[2,4,3]
 BV BOUND     z[1,1]  
 BV BOUND     z[1,2]  
 BV BOUND     z[1,3]  
 BV BOUND     z[2,1]  
 BV BOUND     z[2,2]  
 BV BOUND     z[2,3]  
 BV BOUND     z[3,1]  
 BV BOUND     z[3,2]  
 BV BOUND     z[3,3]  
 BV BOUND     z[4,1]  
 BV BOUND     z[4,2]  
 BV BOUND     z[4,3]  
ENDATA
